c description: Random 2-CNF over 15 variables and 30 clauses
c generator: CNFgen (0.9.0)
c copyright: (C) 2012-2020 Massimo Lauria <massimo.lauria@uniroma1.it>
c url: https://massimolauria.net/cnfgen
c
p cnf 15 30
-1 7 0
6 14 0
-8 14 0
2 -8 0
1 -14 0
2 -3 0
7 -14 0
-7 -9 0
9 10 0
-1 3 0
7 -9 0
2 10 0
1 6 0
-12 13 0
5 8 0
10 11 0
-6 -10 0
-12 14 0
-3 -4 0
-11 -12 0
1 -5 0
-1 6 0
4 13 0
5 -14 0
-4 -12 0
-2 -8 0
-9 -10 0
-1 -5 0
-3 13 0
-2 -4 0